p cnf 10 25
-1 3 5 0
2 -4 6 0
-3 5 7 0
4 -6 8 0
-5 7 9 0
6 -8 10 0
-7 9 -1 0
8 -10 2 0
-9 1 -3 0
10 -2 4 0
1 2 3 0
-4 -5 -6 0
7 8 10 0
-9 -1 -2 0
3 4 5 0
-6 -7 -8 0
2 5 9 0
-10 1 4 0
-3 6 8 0
5 9 2 0
-1 7 4 0
8 -2 -5 0
6 3 -10 0
-4 9 1 0
7 -5 2 0
%
0